
Gurobi 8.1.1 (win64, Python) logging started 09/18/20 11:34:56

Academic license - for non-commercial use only
Read LP format model from file C:\Users\JONASF~1\AppData\Local\Temp\tmp1bcaubta.pyomo.lp
Reading time = 2.36 seconds
x360146: 342578 rows, 333793 columns, 966205 nonzeros
Changed value of parameter mipgap to 0.1
   Prev: 0.0001  Min: 0.0  Max: 1e+100  Default: 0.0001
Optimize a model with 342578 rows, 333793 columns and 966205 nonzeros
Variable types: 289873 continuous, 43920 integer (43920 binary)
Coefficient statistics:
  Matrix range     [1e-01, 3e+02]
  Objective range  [1e-02, 8e+07]
  Bounds range     [1e+00, 2e+05]
  RHS range        [8e-03, 2e+04]
Presolve removed 171094 rows and 187150 columns
Presolve time: 4.43s
Presolved: 171484 rows, 146643 columns, 522627 nonzeros
Variable types: 103662 continuous, 42981 integer (42981 binary)

Root simplex log...

Iteration    Objective       Primal Inf.    Dual Inf.      Time
       0   -1.1711207e+08   3.392389e+06   0.000000e+00      9s
   36406   -7.9338927e+07   4.566917e+05   0.000000e+00     10s
   60182   -7.4911901e+07   4.708595e+06   0.000000e+00     15s
   87026   -7.2876294e+07   1.157725e+05   0.000000e+00     20s
  103046   -7.2642655e+07   1.788680e+06   0.000000e+00     25s
  109207   -7.2543907e+07   5.369498e+04   0.000000e+00     30s
  111754   -7.2533833e+07   0.000000e+00   0.000000e+00     34s

Root relaxation: objective -7.253383e+07, 111754 iterations, 25.73 seconds
Total elapsed time = 38.30s
Total elapsed time = 40.31s

    Nodes    |    Current Node    |     Objective Bounds      |     Work
 Expl Unexpl |  Obj  Depth IntInf | Incumbent    BestBd   Gap | It/Node Time

     0     0 -7.253e+07    0 7768          - -7.253e+07      -     -   44s
H    0     0                    -6.49292e+07 -7.253e+07  11.7%     -   48s
H    0     0                    -6.81356e+07 -7.253e+07  6.46%     -   59s

Explored 1 nodes (115948 simplex iterations) in 59.99 seconds
Thread count was 8 (of 8 available processors)

Solution count 2: -6.81356e+07 -6.49292e+07 

Optimal solution found (tolerance 1.00e-01)
Best objective -6.813562135430e+07, best bound -7.253383291017e+07, gap 6.4551%
